 Code  2132
 Dimension, Fixed Cost
   100        3000
 Facility, Client, Transportation Cost
     1       10           4
     1       11           3
     1       22           1
     1       29           2
     1       32           0
     1       56           1
     1       66           4
     1       83           3
     2        1           4
     2        4           2
     2        6           3
     2       13           0
     2       15           4
     2       26           1
     2       30           2
     2       36           0
     2       50           3
     2       63           0
     2       64           2
     2       78           3
     2       82           0
     2       84           2
     2       89           4
     2      100           0
     3       13           4
     3       54           2
     3       84           4
     3       96           2
     4       28           4
     4       46           3
     4       48           0
     4       69           1
     4       75           2
     4       79           0
     4       97           2
     5       14           3
     5       20           0
     5       27           2
     5       30           2
     5       39           4
     5       48           2
     5       85           2
     5       87           0
     5       99           3
     5      100           2
     6       14           1
     6       20           1
     6       21           4
     6       25           3
     6       42           1
     6       62           0
     6       73           4
     6       81           4
     6       82           3
     6       89           2
     6       97           1
     7        2           4
     7        3           0
     7        5           2
     7       15           2
     7       34           0
     7       52           3
     7       58           2
     7       59           0
     7       64           1
     7       77           3
     7       90           4
     8        8           2
     8       15           1
     8       26           1
     8       28           3
     8       29           2
     8       44           1
     8       48           3
     8       64           3
     8       71           3
     8       72           0
     8       92           0
     9        8           3
     9       18           2
     9       26           3
     9       37           0
     9       40           3
     9       43           1
     9       71           1
     9       88           2
     9       90           4
     9       97           3
    10        1           2
    10        7           0
    10       11           0
    10       21           2
    10       24           1
    10       40           2
    10       42           3
    10       43           2
    10       50           2
    10       54           1
    10       65           0
    10       68           3
    10       77           1
    10       81           4
    10       97           1
    11       20           2
    11       21           3
    11       33           0
    11       35           1
    11       53           2
    11       79           4
    11       84           3
    11       85           1
    11       99           4
    12        9           1
    12       23           1
    12       29           1
    12       30           3
    12       36           4
    12       42           1
    12       44           0
    12       45           0
    12       57           1
    12       59           3
    12       73           3
    12       87           2
    12       95           3
    12       99           1
    13        2           3
    13        5           3
    13       17           1
    13       29           4
    13       34           0
    13       38           1
    13       45           4
    13       55           0
    13       59           1
    13       69           3
    13       78           1
    13       82           2
    13       90           0
    13       96           1
    14       15           0
    14       19           2
    14       52           2
    14       55           1
    14       62           0
    14       88           4
    15        9           4
    15       14           1
    15       18           3
    15       19           4
    15       23           0
    15       30           0
    15       37           4
    15       46           3
    15       47           3
    15       49           2
    15       53           3
    15       56           2
    15       62           4
    15       68           3
    16        4           4
    16        8           4
    16       21           0
    16       43           1
    16       48           2
    16       61           1
    16       79           3
    16       81           1
    17        2           2
    17        5           2
    17       12           0
    17       20           0
    17       33           2
    17       39           2
    17       42           1
    17       51           3
    17       58           1
    17       65           0
    17       69           4
    17       75           2
    17       88           2
    17       92           2
    17      100           0
    18        7           0
    18       14           1
    18       39           2
    18       49           2
    18       50           0
    18       60           2
    18       67           4
    18       70           4
    18       83           1
    18       91           0
    19        6           0
    19       15           1
    19       22           4
    19       29           4
    19       36           4
    19       38           1
    19       39           3
    19       62           4
    19       63           0
    19       67           4
    19       68           1
    19       79           2
    20        7           4
    20       12           0
    20       18           2
    20       31           0
    20       34           2
    20       47           4
    20       55           2
    20       61           1
    20       71           2
    20       74           4
    20       75           4
    20       79           1
    20       90           1
    20       96           4
    20       98           2
    21        5           3
    21        6           3
    21       20           0
    21       32           0
    21       47           0
    21       50           4
    21       59           2
    21       71           0
    21       80           4
    21       88           4
    21       91           1
    21       92           2
    22        3           1
    22       10           2
    22       22           2
    22       24           0
    22       47           0
    22       55           3
    22       57           3
    22       62           2
    22       69           4
    23        1           3
    23       14           1
    23       18           4
    23       33           1
    23       35           0
    23       59           0
    23       65           3
    23       66           3
    23       69           3
    24       30           2
    24       33           1
    24       40           2
    24       48           2
    24       69           2
    24       70           3
    24       76           3
    24       81           3
    24       86           3
    25        4           2
    25       13           4
    25       14           3
    25       38           2
    25       52           2
    25       91           4
    26       28           2
    26       29           4
    26       30           2
    26       44           1
    26       46           1
    26       55           4
    26       62           2
    26       93           4
    26       96           1
    26       99           3
    27       45           3
    27       49           0
    27       50           3
    27       63           0
    28       46           0
    28       61           1
    28       73           0
    28       99           2
    29        3           3
    29        6           4
    29       33           1
    29       46           0
    29       66           3
    29       68           4
    29       79           2
    29       86           3
    29      100           0
    30       15           3
    30       19           1
    30       32           1
    30       44           0
    30       48           1
    30       74           4
    30       75           3
    30       77           2
    30       95           0
    31       21           4
    31       22           0
    31       27           0
    31       33           0
    31       42           3
    31       45           0
    31       48           4
    31       53           1
    31       68           1
    31       79           3
    31       83           2
    31       84           0
    31       86           4
    31       92           0
    32       89           0
    32       96           2
    33       12           4
    33       25           3
    33       36           3
    33       41           4
    33       51           4
    33       56           1
    33       71           0
    33       79           1
    33       82           3
    33       85           3
    34       12           4
    34       38           4
    34       44           2
    34       46           0
    34       50           4
    34       82           0
    34       84           0
    34       89           0
    35        1           0
    35        4           4
    35        9           1
    35       22           1
    35       25           3
    35       31           2
    35       32           2
    35       40           0
    35       42           0
    35       43           3
    35       69           4
    35       95           1
    36        1           0
    36        5           1
    36       16           4
    36       18           1
    36       34           2
    36       39           2
    36       42           2
    36       58           4
    36       61           1
    36       64           0
    36       72           2
    36       80           1
    36       81           1
    36       91           1
    36       92           2
    37       16           0
    37       30           2
    37       41           3
    37       49           4
    37       58           2
    37       87           2
    37       94           3
    38       16           3
    38       17           2
    38       19           2
    38       25           4
    38       27           0
    38       36           1
    38       40           2
    38       57           3
    38       65           1
    38       67           1
    38       73           4
    38      100           0
    39       17           4
    39       41           3
    39       47           1
    39       48           3
    39       52           0
    39       53           0
    39       64           2
    39       97           2
    40        7           2
    40       13           3
    40       27           3
    40       34           0
    40       45           0
    40       60           1
    40       74           3
    40       86           1
    40       94           3
    41        9           4
    41       14           0
    41       31           2
    41       36           2
    41       43           2
    41       54           1
    41       62           1
    41       63           1
    41       84           0
    42        5           0
    42       13           4
    42       21           4
    42       26           1
    42       32           0
    42       34           1
    42       56           2
    42       59           1
    42       68           2
    42       80           3
    42       96           1
    43        3           1
    43        6           2
    43       10           1
    43       25           0
    43       32           1
    43       46           2
    43       52           3
    43       56           3
    43       57           0
    43       69           0
    43       70           2
    43       87           2
    43       94           3
    44       15           4
    44       20           3
    44       26           1
    44       32           2
    44       44           3
    44       47           4
    44       53           4
    44       58           3
    44       70           2
    44       72           4
    44       83           3
    44       84           0
    44       90           0
    44       98           3
    45       16           1
    45       23           0
    45       33           0
    45       58           0
    45       67           0
    45       74           1
    45       75           1
    45       82           4
    46       20           2
    46       33           0
    46       41           1
    46       46           3
    46       55           1
    46       58           4
    46       73           2
    46       78           1
    47       26           3
    47       30           2
    47       35           0
    47       58           4
    47       68           3
    47       80           1
    47       83           1
    47       91           4
    48        3           1
    48        8           1
    48       11           0
    48       12           2
    48       28           2
    48       46           1
    48       53           3
    48       62           3
    48       63           1
    48       71           3
    48       80           2
    48       91           0
    48       97           1
    48       99           3
    49        6           4
    49        8           2
    49       26           0
    49       40           3
    49       41           3
    49       43           2
    49       49           2
    49       75           2
    49       93           1
    50        4           0
    50       11           2
    50       17           1
    50       22           3
    50       27           4
    50       28           4
    50       30           0
    50       38           2
    50       42           1
    50       49           2
    50       50           2
    50       59           4
    50       68           4
    50       75           3
    50       83           0
    50       98           0
    51       18           2
    51       32           3
    51       42           0
    51       54           4
    51       56           3
    51       57           1
    51       70           3
    51       72           3
    51       86           2
    51       92           4
    51       96           3
    52        2           0
    52       11           2
    52       40           2
    52       60           0
    52       61           0
    52       70           4
    52       76           0
    52       81           1
    52       91           3
    52       95           2
    53       19           1
    53       26           0
    53       61           4
    53       65           1
    53       74           4
    53       76           4
    53       97           1
    54        6           4
    54        9           1
    54       10           2
    54       12           3
    54       20           0
    54       24           1
    54       63           3
    54       68           3
    54       86           4
    54      100           4
    55       10           0
    55       21           1
    55       38           3
    55       47           4
    55       51           0
    55       56           0
    55       64           1
    55       66           0
    55       99           3
    56        1           4
    56       10           1
    56       24           0
    56       25           0
    56       35           1
    56       52           1
    56       71           2
    56       77           3
    57        6           4
    57       15           0
    57       17           0
    57       19           4
    57       24           2
    57       29           1
    57       38           1
    57       70           2
    57       73           3
    58       13           2
    58       23           1
    58       39           1
    58       62           2
    58       67           4
    58       68           0
    58       74           1
    58       76           1
    58       83           3
    58       98           2
    58       99           0
    59        9           3
    59       34           2
    59       35           3
    59       52           3
    59       54           1
    59       58           1
    59       61           1
    59       83           4
    59       93           1
    59       98           1
    60       11           1
    60       37           3
    60       45           4
    60       54           1
    60       61           2
    60       66           1
    60       72           2
    60       85           4
    60       90           4
    61        7           4
    61        8           3
    61        9           2
    61       13           2
    61       17           4
    61       21           0
    61       37           1
    61       55           4
    61       73           1
    61       87           4
    61       88           2
    61       92           1
    61       93           1
    62       41           4
    62       51           2
    62       65           4
    62       67           1
    62       72           2
    62       78           0
    62       82           3
    62       94           2
    63       34           0
    63       47           3
    63       51           3
    63       54           2
    63       60           1
    63       82           2
    63       94           4
    64        5           1
    64       11           3
    64       20           2
    64       27           2
    64       47           4
    64       54           3
    64       67           2
    64       76           2
    64       77           4
    64       78           0
    64       84           4
    64       95           3
    65       26           1
    65       27           4
    65       33           4
    65       34           4
    65       49           0
    65       50           3
    65       51           3
    65       82           0
    65       83           0
    65       95           1
    66       11           3
    66       14           2
    66       23           4
    66       28           2
    66       32           1
    66       35           4
    66       78           1
    66       88           3
    66       90           4
    67        7           4
    67       17           3
    67       29           0
    67       33           0
    67       53           4
    67       60           4
    67       67           4
    67       93           0
    68        9           0
    68       12           0
    68       15           0
    68       46           1
    68       55           1
    68       64           0
    68       65           4
    68       81           0
    68       84           4
    68       93           4
    68       94           2
    68       98           3
    69        2           2
    69        4           0
    69        8           4
    69       16           3
    69       25           3
    69       36           2
    69       51           4
    69       57           1
    69       61           0
    69       69           4
    69       73           2
    69       94           4
    69       97           2
    70        5           3
    70       11           0
    70       13           0
    70       19           3
    70       44           0
    70       60           0
    70       62           3
    70       70           4
    70       87           3
    70       89           0
    70       92           3
    70       98           2
    71        4           1
    71       10           4
    71       11           3
    71       28           0
    71       40           3
    71       44           2
    71       53           1
    71       54           1
    71       70           4
    71       75           4
    71       76           4
    71       78           4
    71       85           1
    71       98           4
    72        1           2
    72       22           4
    72       28           1
    72       57           4
    72       98           0
    73       14           2
    73       16           2
    73       17           3
    73       45           1
    73       58           4
    73       72           2
    73       85           4
    73       86           4
    73       87           3
    74       12           3
    74       19           0
    74       31           2
    74       56           0
    74       60           3
    74       63           2
    74       66           1
    74       72           1
    74       76           4
    74       80           1
    74       88           4
    74       95           4
    74       98           3
    75        2           2
    75        7           1
    75       23           2
    75       27           2
    75       47           4
    75       67           1
    75       75           3
    75       94           3
    76       19           1
    76       22           0
    76       37           4
    76       40           1
    76       43           0
    76       63           2
    76       66           1
    76       85           2
    76       87           4
    76       88           2
    76       97           4
    77        9           3
    77       13           4
    77       41           3
    77       51           1
    77       74           2
    77       78           4
    77       87           2
    77       88           2
    77       95           0
    78        3           0
    78        6           3
    78       25           2
    78       48           4
    78       61           2
    78       65           2
    78       77           3
    78       86           3
    79       15           4
    79       22           3
    79       25           4
    79       31           1
    79       39           1
    79       41           2
    79       55           3
    79       64           2
    79       70           2
    79       85           1
    79       91           1
    79       92           4
    80       18           1
    80       19           2
    80       31           0
    80       35           4
    80       39           0
    80       59           3
    80       74           0
    80       96           2
    81        1           3
    81        3           3
    81       35           0
    81       38           4
    81       51           0
    81       52           3
    81       53           1
    81       57           3
    81       66           3
    81       72           2
    81       74           1
    81       85           1
    81       93           1
    81       96           4
    82        3           1
    82        8           2
    82       12           0
    82       31           1
    82       38           0
    82       45           1
    82       49           4
    82       55           1
    82       57           1
    82       67           1
    82       84           4
    82       90           3
    83        3           3
    83        4           4
    83        5           0
    83       17           3
    83       28           1
    83       37           4
    83       39           4
    83       56           4
    83       79           2
    83       80           0
    83       81           0
    83       94           0
    84        4           2
    84       16           0
    84       28           1
    84       44           4
    84       50           0
    84       89           1
    85        7           4
    85       13           0
    85       16           0
    85       17           1
    85       21           3
    85       23           1
    85       39           3
    85       44           3
    85       45           0
    85       48           2
    85       73           1
    85       93           1
    85       95           3
    86       65           3
    86       66           2
    86       74           1
    86       75           1
    86       77           0
    86       78           4
    86       89           1
    86       95           3
    86       99           3
    86      100           2
    87       29           4
    87       41           0
    87       43           2
    87       73           1
    87       76           1
    87       80           0
    87       87           2
    88        3           2
    88        7           4
    88       10           1
    88       21           3
    88       24           1
    88       26           3
    88       49           2
    88       50           2
    88      100           0
    89       38           2
    89       57           0
    89       60           3
    89       64           2
    89       82           4
    89       85           2
    90        8           0
    90       24           3
    90       27           4
    90       37           3
    90       64           2
    90       65           4
    90       76           3
    90       96           3
    91        2           4
    91       24           0
    91       31           0
    91       32           0
    91       40           1
    91       42           4
    91       43           2
    91       60           0
    91       63           0
    91       71           2
    91       77           0
    91       79           2
    91       86           0
    91      100           4
    92        2           1
    92       12           3
    92       25           0
    92       29           3
    92       31           1
    92       36           2
    92       94           2
    93        5           1
    93       18           4
    93       30           4
    93       35           4
    93       36           2
    93       45           0
    93       53           3
    93       54           3
    93       66           2
    93       69           4
    93       83           1
    93       89           2
    93       91           1
    93       92           2
    93       93           4
    94        2           4
    94       23           3
    94       31           0
    94       37           4
    94       49           2
    94       51           0
    94       52           1
    94       71           2
    94       81           2
    94       89           0
    94       97           1
    95        1           2
    95        4           1
    95        7           2
    95        8           4
    95       35           3
    95       37           1
    95       71           4
    95       72           2
    95       77           1
    96        6           4
    96       16           0
    96       18           1
    96       23           1
    96       24           4
    96       77           3
    96       88           4
    96       89           0
    96       93           0
    97        1           2
    97        9           3
    97       14           1
    97       16           0
    97       18           2
    97       41           0
    97       56           1
    97       59           3
    97       90           0
    97       99           2
    98        2           2
    98       10           3
    98       22           2
    98       60           3
    98       78           2
    98       80           1
    98       86           3
    98       90           0
    99       23           4
    99       24           3
    99       37           3
    99       52           2
    99       59           2
    99       76           3
    99       80           4
    99       81           4
    99      100           3
   100       10           4
   100       20           0
   100       27           0
   100       34           1
   100       36           4
   100       43           3
   100       63           3
   100       91           4
